Route #1: 28 6 132 187 
Route #2: 67 140 54 66 89 100 37 9 139 143 59 12 155 115 121 88 87 17 30 64 
Route #3: 82 166 21 29 173 165 85 157 125 128 99 168 94 151 160 50 56 45 108 38 32 23 117 114 86 188 33 177 65 189 109 112 192 53 101 74 52 31 106 70 22 147 195 41 129 55 81 107 194 158 154 92 4 
Route #4: 136 3 180 48 131 24 156 102 196 183 179 7 110 178 36 43 124 15 18 68 80 51 91 61 198 111 145 148 116 95 83 44 90 103 200 39 47 79 14 49 153 
Route #5: 142 152 184 190 27 167 126 169 182 57 133 40 16 98 119 161 72 
Route #6: 150 163 171 78 162 63 149 120 135 186 138 46 159 20 26 62 5 122 35 164 104 25 19 170 146 93 73 193 10 77 181 141 185 197 172 42 2 34 76 96 130 
Route #7: 174 97 134 84 199 127 105 176 113 58 191 69 71 11 144 123 137 118 13 8 75 60 1 175 
Cost 1854.8
